
Gurobi 9.1.2 (linux64) logging started Wed Nov 24 10:27:00 2021

Changed value of parameter LogFile to lemke_square_v-(7, 6).log-s20-l10.log
   Prev:   Default: 
Changed value of parameter Threads to 32
   Prev: 0  Min: 0  Max: 1024  Default: 0
Changed value of parameter TimeLimit to 3600.0
   Prev: inf  Min: 0.0  Max: inf  Default: inf
Changed value of parameter MIPGap to 0.4
   Prev: 0.0001  Min: 0.0  Max: inf  Default: 0.0001
Warning: variable name "X[(7, 4),(7, 3)]" has a space
Warning: constraint name "flow-constr-t0-v(3, 0)" has a space
Warning: to let Gurobi read it back, use rlp format
Gurobi Optimizer version 9.1.2 build v9.1.2rc0 (linux64)
Thread count: 16 physical cores, 32 logical processors, using up to 32 threads
Optimize a model with 6013 rows, 5440 columns and 20670 nonzeros
Model fingerprint: 0x3caf790e
Variable types: 0 continuous, 5440 integer (4800 binary)
Coefficient statistics:
  Matrix range     [1e+00, 1e+03]
  Objective range  [1e-01, 1e-01]
  Bounds range     [1e+00, 5e+02]
  RHS range        [1e+00, 1e+03]
Presolve removed 547 rows and 580 columns
Presolve time: 0.04s
Presolved: 5466 rows, 4860 columns, 18150 nonzeros
Variable types: 0 continuous, 4860 integer (4220 binary)

Root relaxation: objective 6.400000e+01, 127 iterations, 0.00 seconds

    Nodes    |    Current Node    |     Objective Bounds      |     Work
 Expl Unexpl |  Obj  Depth IntInf | Incumbent    BestBd   Gap | It/Node Time

     0     0   64.00000    0   44          -   64.00000      -     -    0s
     0     0   64.00000    0  112          -   64.00000      -     -    0s
     0     0   64.00000    0  112          -   64.00000      -     -    0s
     0     0   64.00000    0   54          -   64.00000      -     -    0s
     0     0   64.00000    0   52          -   64.00000      -     -    0s
H    0     0                     318.0000000   64.00000  79.9%     -    0s
H    0     0                     206.2000000   64.00000  69.0%     -    0s
H    0     2                     198.9000000   64.00000  67.8%     -    0s
     0     2   64.00000    0   50  198.90000   64.00000  67.8%     -    0s
H   31    64                     152.2000000   64.00000  58.0%  64.7    1s
H   34    64                     147.6000000   64.00000  56.6%  64.3    1s
H   46    64                     142.7000000   64.00000  55.2%  64.0    1s
H   95   128                     141.4000000   64.00000  54.7%  57.1    3s
H   96   128                     124.3000000   64.00000  48.5%  56.6    3s
H  125   128                     113.0000000   64.00000  43.4%  45.0    3s
  4108  6076   68.60000  111  101  113.00000   64.00000  43.4%  13.5    5s
H 8545  8562                     105.6000000   64.00000  39.4%   9.9    6s
H 8568  8494                     100.5000000   64.00000  36.3%   9.8    6s
H 8568  8494                     100.3000000   64.00000  36.2%   9.8    6s
H 8569  8303                      91.1000000   64.00000  29.7%   9.9    6s
H 8972  8296                      90.4000000   64.00000  29.2%   9.7    6s

Cutting planes:
  Gomory: 14
  Cover: 210
  Implied bound: 308
  Clique: 4
  MIR: 64
  Flow cover: 17
  Zero half: 2
  RLT: 11
  Relax-and-lift: 34

Explored 9099 nodes (89209 simplex iterations) in 7.01 seconds
Thread count was 32 (of 32 available processors)

Solution count 10: 90.4 91.1 100.3 ... 147.6

Optimal solution found (tolerance 4.00e-01)
Best objective 9.040000000000e+01, best bound 6.400000000000e+01, gap 29.2035%

Gurobi 9.1.2 (linux64) logging started Wed Nov 24 10:32:20 2021

Changed value of parameter LogFile to lemke_square_v-(7, 6).log-s20-l10.log
   Prev:   Default: 
Changed value of parameter Threads to 32
   Prev: 0  Min: 0  Max: 1024  Default: 0
Changed value of parameter TimeLimit to 3600.0
   Prev: inf  Min: 0.0  Max: inf  Default: inf
Changed value of parameter MIPGap to 0.4
   Prev: 0.0001  Min: 0.0  Max: inf  Default: 0.0001
Warning: variable name "X[(7, 4),(7, 3)]" has a space
Warning: constraint name "flow-constr-t0-v(3, 0)" has a space
Warning: to let Gurobi read it back, use rlp format
Gurobi Optimizer version 9.1.2 build v9.1.2rc0 (linux64)
Thread count: 16 physical cores, 32 logical processors, using up to 32 threads
Optimize a model with 6013 rows, 5440 columns and 20670 nonzeros
Model fingerprint: 0x3caf790e
Variable types: 0 continuous, 5440 integer (4800 binary)
Coefficient statistics:
  Matrix range     [1e+00, 1e+03]
  Objective range  [1e-01, 1e-01]
  Bounds range     [1e+00, 5e+02]
  RHS range        [1e+00, 1e+03]
Presolve removed 547 rows and 580 columns
Presolve time: 0.04s
Presolved: 5466 rows, 4860 columns, 18150 nonzeros
Variable types: 0 continuous, 4860 integer (4220 binary)

Root relaxation: objective 6.400000e+01, 127 iterations, 0.00 seconds

    Nodes    |    Current Node    |     Objective Bounds      |     Work
 Expl Unexpl |  Obj  Depth IntInf | Incumbent    BestBd   Gap | It/Node Time

     0     0   64.00000    0   44          -   64.00000      -     -    0s
     0     0   64.00000    0  112          -   64.00000      -     -    0s
     0     0   64.00000    0  112          -   64.00000      -     -    0s
     0     0   64.00000    0   54          -   64.00000      -     -    0s
     0     0   64.00000    0   52          -   64.00000      -     -    0s
H    0     0                     318.0000000   64.00000  79.9%     -    0s
H    0     0                     206.2000000   64.00000  69.0%     -    0s
H    0     2                     198.9000000   64.00000  67.8%     -    0s
     0     2   64.00000    0   50  198.90000   64.00000  67.8%     -    0s
H   31    64                     152.2000000   64.00000  58.0%  64.7    2s
H   34    64                     147.6000000   64.00000  56.6%  64.3    2s
H   46    64                     142.7000000   64.00000  55.2%  64.0    2s
H   95   128                     141.4000000   64.00000  54.7%  57.1    3s
H   96   128                     124.3000000   64.00000  48.5%  56.6    3s
H  125   128                     113.0000000   64.00000  43.4%  45.0    3s
  4108  6076   68.60000  111  101  113.00000   64.00000  43.4%  13.5    5s
H 8545  8562                     105.6000000   64.00000  39.4%   9.9    7s
H 8568  8494                     100.5000000   64.00000  36.3%   9.8    7s
H 8568  8494                     100.3000000   64.00000  36.2%   9.8    7s
H 8569  8303                      91.1000000   64.00000  29.7%   9.9    7s
H 8972  8296                      90.4000000   64.00000  29.2%   9.7    7s

Cutting planes:
  Gomory: 14
  Cover: 210
  Implied bound: 308
  Clique: 4
  MIR: 64
  Flow cover: 17
  Zero half: 2
  RLT: 11
  Relax-and-lift: 34

Explored 9099 nodes (89209 simplex iterations) in 7.14 seconds
Thread count was 32 (of 32 available processors)

Solution count 10: 90.4 91.1 100.3 ... 147.6

Optimal solution found (tolerance 4.00e-01)
Best objective 9.040000000000e+01, best bound 6.400000000000e+01, gap 29.2035%

Gurobi 9.1.2 (linux64) logging started Wed Nov 24 11:41:15 2021

Changed value of parameter LogFile to lemke_square_v-(7, 6).log-s20-l10.log
   Prev:   Default: 
Changed value of parameter Threads to 32
   Prev: 0  Min: 0  Max: 1024  Default: 0
Changed value of parameter TimeLimit to 3600.0
   Prev: inf  Min: 0.0  Max: inf  Default: inf
Changed value of parameter MIPGap to 0.3
   Prev: 0.0001  Min: 0.0  Max: inf  Default: 0.0001
Warning: variable name "X[(7, 4),(7, 3)]" has a space
Warning: constraint name "flow-constr-t0-v(3, 0)" has a space
Warning: to let Gurobi read it back, use rlp format
Gurobi Optimizer version 9.1.2 build v9.1.2rc0 (linux64)
Thread count: 16 physical cores, 32 logical processors, using up to 32 threads
Optimize a model with 6013 rows, 5440 columns and 20670 nonzeros
Model fingerprint: 0x3caf790e
Variable types: 0 continuous, 5440 integer (4800 binary)
Coefficient statistics:
  Matrix range     [1e+00, 1e+03]
  Objective range  [1e-01, 1e-01]
  Bounds range     [1e+00, 5e+02]
  RHS range        [1e+00, 1e+03]
Presolve removed 547 rows and 580 columns
Presolve time: 0.04s
Presolved: 5466 rows, 4860 columns, 18150 nonzeros
Variable types: 0 continuous, 4860 integer (4220 binary)

Root relaxation: objective 6.400000e+01, 127 iterations, 0.00 seconds

    Nodes    |    Current Node    |     Objective Bounds      |     Work
 Expl Unexpl |  Obj  Depth IntInf | Incumbent    BestBd   Gap | It/Node Time

     0     0   64.00000    0   44          -   64.00000      -     -    0s
     0     0   64.00000    0  112          -   64.00000      -     -    0s
     0     0   64.00000    0  112          -   64.00000      -     -    0s
     0     0   64.00000    0   54          -   64.00000      -     -    0s
     0     0   64.00000    0   52          -   64.00000      -     -    0s
H    0     0                     318.0000000   64.00000  79.9%     -    0s
H    0     0                     206.2000000   64.00000  69.0%     -    0s
H    0     2                     198.9000000   64.00000  67.8%     -    0s
     0     2   64.00000    0   50  198.90000   64.00000  67.8%     -    0s
H   31    64                     152.2000000   64.00000  58.0%  64.7    1s
H   34    64                     147.6000000   64.00000  56.6%  64.3    1s
H   46    64                     142.7000000   64.00000  55.2%  64.0    1s
H   95   128                     141.4000000   64.00000  54.7%  57.1    3s
H   96   128                     124.3000000   64.00000  48.5%  56.6    3s
H  125   128                     113.0000000   64.00000  43.4%  45.0    3s
  4108  6076   68.60000  111  101  113.00000   64.00000  43.4%  13.5    5s
H 8545  8562                     105.6000000   64.00000  39.4%   9.9    6s
H 8568  8494                     100.5000000   64.00000  36.3%   9.8    6s
H 8568  8494                     100.3000000   64.00000  36.2%   9.8    6s
H 8569  8303                      91.1000000   64.00000  29.7%   9.9    6s
H 8972  8296                      90.4000000   64.00000  29.2%   9.7    6s

Cutting planes:
  Gomory: 14
  Cover: 210
  Implied bound: 308
  Clique: 4
  MIR: 64
  Flow cover: 17
  Zero half: 2
  RLT: 11
  Relax-and-lift: 34

Explored 9099 nodes (89209 simplex iterations) in 6.86 seconds
Thread count was 32 (of 32 available processors)

Solution count 10: 90.4 91.1 100.3 ... 147.6

Optimal solution found (tolerance 3.00e-01)
Best objective 9.040000000000e+01, best bound 6.400000000000e+01, gap 29.2035%
